s td 102 48 387
b 1 7 108 182 243 287 303
b 2 12 61 75 84 132 149 156 166 324 335 345 352
b 3 23 38 39 50 62 111 142 154 164 172 185 196 211 219 220 223 229 233 242 272 279 342 351 355 360 364
b 4 15 44 60 63 71 109 126 166 197 208 262 327 335 345 366
b 5 15 44 63 71 109 126 166 197 208 262 264 327 335 345 366
b 6 9 70 121 127 128 129 141 158 160 198 213 218 237 263 274 277 292 300 313 365
b 7 17 104 133 138 145 148 162 199 203 225 253 256
b 8 61 75 132 149 166 264 324 335 345 352
b 9 19 20 30 32 36 45 56 90 97 99 101 157 228 236 266 275 330 331 339 362
b 10 66 91 93 100 118 135 150 153 161 183 185 209 214 226 233 238 265 270 272 286 297 332 350 354 376
b 11 27 34 35 194 230 231 232 312 333 340 348 367
b 12 13 40 106 112 122 131 136 147 192 235 298 334 356 374 385 387
b 13 13 115 116 224 290 294 320
b 14 13 136 147 162 224 256 290 294 320 356
b 15 13 17 136 147 162 256 290 320 356
b 16 2 22 68 113 174 207 375
b 17 2 22 27 68 113 207 239 250 258 340
b 18 2 27 34 68 113 239 250 258 340
b 19 108 182 243 303 338 373
b 20 108 179 182 190 252 283 303 338 373 384
b 21 1 24 28 41 42 47 50 64 65 74 77 86 92 96 107 151 176 178 180 212 217 234 237 240 241 251 263 280 282 302 307 311 316 358 371 380
b 22 2 13 17 24 27 28 34 42 47 50 61 64 72 74 86 107 132 136 147 149 151 162 166 176 178 180 217 234 237 239 240 241 250 251 256 258 263 264 282 307 311 316 324 335 340 345 356 371
b 23 2 13 17 24 26 27 28 34 42 47 50 54 61 64 72 74 95 107 132 136 147 149 151 162 166 178 180 202 234 237 239 240 250 251 256 258 264 282 307 311 316 324 335 340 345 356 371
b 24 3 13 17 24 26 54 61 72 83 95 132 147 149 151 162 166 180 202 251 256 264 278 307 311 324 335 345 356 363
b 25 3 13 17 24 61 72 83 132 134 147 149 151 162 166 180 251 256 264 278 307 311 324 335 345 356 363
b 26 3 61 83 132 134 149 162 166 170 180 256 264 278 307 315 324 335 345 363 382
b 27 3 25 61 83 132 149 166 170 173 264 278 315 324 335 345 363 382
b 28 25 55 61 83 132 146 149 166 170 173 245 264 278 315 324 335 345 363 382
b 29 25 55 110 146 166 170 173 245 261 264 276 315 335 345 382
b 30 25 31 55 110 146 166 170 173 245 261 264 276 315 345 382
b 31 25 110 137 146 173 245 261 276 323 335
b 32 2 13 17 26 27 28 34 42 47 50 54 61 64 74 95 106 107 132 133 136 145 147 149 162 166 178 202 203 234 235 237 239 240 250 256 258 264 282 316 324 334 335 340 345 356 371 387
b 33 2 11 26 27 28 34 35 42 47 50 54 61 64 74 82 95 106 107 132 133 145 149 166 178 194 202 203 231 234 235 237 239 240 250 258 264 282 291 308 316 324 334 335 340 345 347 371 387
b 34 8 26 42 47 54 64 95 133 145 178 202 203 235 240 291 334 371 387
b 35 2 11 26 27 28 34 35 49 50 54 61 74 82 95 106 107 132 149 166 194 202 231 234 237 239 250 258 264 282 291 308 316 324 335 340 345 347 361
b 36 2 11 26 27 28 34 35 49 54 61 74 82 95 106 107 132 149 166 194 202 205 231 234 237 239 250 258 264 282 291 308 316 324 335 340 345 347 357 361
b 37 11 26 28 35 43 49 54 61 74 82 95 106 107 132 149 166 181 194 201 202 205 231 234 237 246 264 282 291 308 316 324 335 345 347 357 361
b 38 11 26 28 35 43 54 61 74 82 95 106 107 132 149 166 181 194 201 202 231 234 237 246 264 282 291 293 308 316 324 335 341 345 347
b 39 11 28 35 43 54 61 74 79 82 95 106 107 132 149 166 181 194 201 202 231 234 237 246 264 282 291 293 308 316 324 335 341 345 347 383
b 40 11 28 35 43 61 74 79 82 106 107 132 149 166 181 194 201 215 231 234 237 246 264 282 288 291 293 308 316 324 335 336 341 345 347 383
b 41 11 28 35 43 61 74 79 82 106 107 132 163 166 181 194 201 215 231 234 237 246 264 282 288 291 293 308 316 324 335 336 341 345 347 383
b 42 11 28 35 63 74 79 82 106 107 163 166 194 208 215 231 234 237 264 282 288 291 293 308 316 327 335 336 341 345 347 366 383
b 43 2 11 27 34 35 49 82 194 205 221 231 239 250 258 308 321 340 344 347 357 361
b 44 2 11 27 34 35 49 82 194 205 221 231 239 250 308 321 340 344 347 357 361 370
b 45 13 17 40 106 122 133 136 145 147 162 203 235 256 334 356 374 385 387
b 46 1 24 28 29 41 42 47 50 52 64 65 74 77 92 96 107 124 144 151 178 180 189 193 204 212 217 234 237 240 241 251 259 260 280 282 302 307 311 316 319 349 358 371 378 380
b 47 24 29 41 42 47 50 52 64 74 77 92 96 107 124 144 151 177 178 180 189 193 204 217 219 240 241 251 259 260 280 282 301 302 306 307 311 316 319 325 349 371 378
b 48 24 33 41 42 47 50 52 64 74 77 92 96 107 123 124 144 151 171 177 178 180 204 217 219 240 241 251 259 260 280 282 301 302 306 307 311 316 325 349 371 372 378 379
b 49 24 33 42 47 50 52 62 64 77 96 123 124 144 150 151 154 171 172 177 178 180 185 204 219 233 240 241 251 259 260 272 282 301 306 307 311 325 349 364 371 372 378 379
b 50 4 33 50 52 62 77 96 123 124 144 150 154 171 172 177 185 204 219 233 259 260 272 279 325 349 364 372 378 379
b 51 4 21 33 51 52 62 77 85 89 96 123 124 144 150 154 165 171 172 177 185 200 204 233 259 260 272 279 328 349 364 372 378 379
b 52 18 21 51 52 62 81 85 89 124 144 150 154 165 169 171 172 177 185 200 204 210 233 254 259 260 272 328 349 364 378
b 53 18 21 51 52 59 62 81 89 124 144 150 154 169 171 172 177 185 200 204 210 233 254 259 260 272 328 349 364 378
b 54 18 21 48 52 59 62 81 89 124 144 150 154 169 171 172 177 185 200 204 210 233 254 259 260 272 328 349 364 378
b 55 18 48 52 59 62 81 89 124 144 150 154 169 171 172 177 185 204 210 233 254 259 260 272 346 349 364 378
b 56 4 33 50 62 77 96 123 154 164 172 185 211 219 229 233 272 279 325 360 364 372 379
b 57 4 39 50 62 77 96 154 164 172 185 211 219 229 233 242 272 279 325 351 360 364
b 58 19 24 32 42 47 62 64 90 91 100 150 151 154 172 178 180 185 214 219 228 233 236 240 241 251 265 272 282 301 306 307 311 325 330 354 364 371
b 59 19 24 32 42 45 47 64 90 100 151 178 180 214 228 236 240 241 251 282 307 311 330 339 371
b 60 19 24 32 42 45 47 57 64 90 100 151 178 180 214 228 236 240 241 251 282 307 311 330 339 362
b 61 19 24 32 45 57 90 100 151 178 180 214 228 236 241 251 266 307 311 330 331 339 362
b 62 19 24 32 45 57 90 97 100 125 178 180 214 228 236 241 251 266 307 311 330 331 339 362
b 63 19 24 32 45 56 57 90 97 100 101 125 178 214 228 236 266 275 330 331 339 362
b 64 19 24 30 32 45 56 57 90 97 99 101 125 178 228 236 266 275 330 331 339 362
b 65 19 20 24 30 32 36 45 56 90 97 99 101 125 228 236 266 275 330 331 339 362
b 66 19 24 32 42 47 62 64 90 91 100 150 151 154 172 178 180 185 214 219 228 233 236 240 251 265 272 282 301 306 307 311 325 330 350 354 364 371
b 67 19 32 47 62 64 66 90 91 100 150 151 154 172 180 185 188 209 214 219 228 233 236 247 265 272 301 306 307 322 325 326 330 350 354 359 364 371
b 68 47 64 66 87 90 151 180 188 209 247 307 322 326 330 337 359 371
b 69 19 32 62 66 91 100 118 135 150 153 154 161 172 185 188 209 214 219 226 228 233 236 238 247 265 272 286 297 301 306 322 325 326 350 354 359 364
b 70 19 32 66 91 93 100 118 135 150 153 161 185 188 209 214 226 228 233 236 238 247 265 270 272 286 297 326 332 350 354 359 376
b 71 1 14 24 28 29 42 47 52 64 65 74 107 124 140 144 178 189 193 204 206 212 217 234 237 240 241 251 257 259 260 282 296 311 316 319 343 349 358 371 377 378 380
b 72 1 14 24 29 52 65 74 80 107 124 140 144 189 193 204 206 212 217 241 251 257 259 260 282 296 309 311 319 343 349 353 358 377 378 380
b 73 6 14 16 29 52 65 69 80 117 124 140 143 144 159 175 184 189 193 204 206 212 227 241 257 259 260 282 283 284 285 295 296 309 319 343 349 353 358 377 378 380 381
b 74 6 10 14 16 53 65 69 80 117 140 143 159 175 184 195 206 212 227 241 257 282 283 284 285 295 296 309 310 343 353 358 368 377 380 381
b 75 6 10 14 16 53 65 69 80 108 117 143 159 175 182 184 190 195 206 212 227 241 257 283 284 285 295 309 310 343 353 358 368 380 381 384
b 76 6 10 16 53 65 69 80 98 108 117 130 143 159 175 182 184 190 195 212 227 241 283 284 285 295 309 310 353 358 368 380 381 384
b 77 6 10 16 53 69 78 80 98 108 117 130 143 155 159 175 182 184 190 195 212 227 241 283 284 285 289 295 309 310 353 358 368 380 381 384
b 78 6 10 16 46 53 69 73 78 98 108 117 120 130 143 152 155 159 167 175 182 184 190 195 222 227 283 284 285 289 295 305 310 368 369 381 384 386
b 79 10 46 53 73 78 94 98 108 120 130 152 155 159 167 182 190 195 222 283 289 299 305 310 368 369 384 386
b 80 73 94 108 159 182 190 248 283 299 304 384
b 81 108 159 179 182 190 248 252 283 304 384
b 82 6 16 29 37 52 69 80 117 124 140 143 144 159 168 175 184 189 191 193 204 227 241 259 260 282 283 284 285 295 296 309 319 349 353 377 378 381
b 83 6 16 29 37 52 69 80 117 124 140 143 144 159 168 175 184 189 191 193 204 227 259 260 271 282 283 284 285 295 296 309 319 349 353 377 378 381
b 84 6 16 29 37 52 69 88 103 114 117 124 139 143 144 159 168 175 184 189 191 193 204 216 227 244 259 260 271 283 284 285 295 314 319 329 349 378 381
b 85 14 28 42 47 64 74 102 107 140 178 206 234 237 240 257 282 296 316 343 371 377
b 86 28 41 74 77 86 92 96 105 107 176 217 234 237 255 263 280 302 316
b 87 9 28 41 74 86 92 105 107 121 176 217 234 237 255 263 280 292 300 302 316
b 88 9 28 58 74 107 121 234 237 292 300 316
b 89 9 41 74 86 92 105 107 121 176 187 198 217 237 255 263 280 292 300 302 365
b 90 9 41 92 105 121 128 158 187 198 217 218 237 255 263 277 280 292 300 302 365
b 91 9 105 121 128 158 187 198 213 217 218 237 255 263 274 277 292 300 365
b 92 5 17 27 34 67 119 162 186 256 267 317 318 340
b 93 5 17 27 34 119 162 186 249 256 267 281 317 318 340
b 94 2 5 13 17 27 34 119 147 162 239 249 250 256 258 267 281 340 356
b 95 2 5 13 17 27 34 119 136 147 162 239 250 256 258 340 356
b 96 4 23 39 50 62 111 142 154 164 172 185 196 211 219 220 223 229 233 242 272 279 342 351 355 360 364
b 97 4 39 50 62 111 154 164 172 185 211 219 229 233 242 272 279 325 351 360 364
b 98 9 70 105 121 127 128 158 198 213 218 237 255 263 274 277 292 300 365
b 99 17 40 104 122 133 138 145 162 199 203 225 256 374 385
b 100 27 34 35 194 221 230 231 321 333 340 344 348 367 370
b 101 63 71 109 163 166 197 208 215 262 264 288 327 335 336 345 366
b 102 33 41 74 76 92 107 123 171 217 268 269 273 280 302 316 372 379
1 19
2 8
3 96
4 5
5 101
6 98
7 99
8 22
9 65
10 70
11 100
12 45
13 14
14 15
15 22
16 17
17 18
18 22
19 20
20 81
21 22
21 46
21 86
22 95
22 23
23 24
23 32
24 25
25 26
26 27
27 28
28 29
29 30
29 31
32 33
32 45
33 34
33 35
35 36
36 37
36 43
37 38
38 39
39 40
40 41
41 42
42 101
43 44
44 100
45 99
46 47
46 71
47 48
48 102
48 49
49 50
49 58
50 51
50 56
51 52
52 53
53 54
54 55
56 57
57 97
58 59
58 66
59 60
60 61
61 62
62 63
63 64
64 65
66 67
67 68
67 69
69 70
71 72
71 85
72 73
73 74
73 82
74 75
75 76
76 77
77 78
78 79
79 80
80 81
82 83
83 84
86 87
87 88
87 89
89 90
90 91
91 98
92 93
93 94
94 95
96 97
